/*********************************************
 * OPL 12.9.0.0 Data
 * Author: Windows
 * Creation Date: 18 Mar 2019 at 13:37:43
 *********************************************/
/*Sommets = {"A","B","C","D","E","F","G","H"};
float r[Sommets]=...;
Arretes={<"A","B",2>,<"A","D",5>,<"A","E",7>,<"B","C",9>,<"B","E",4>,<"C","E",4>,<"C","G",6>,<"D","E",3>,<"D","F",4>,<"E","F",3>,<"E","G",4>,<"F","H",5>,<"G","H",3>}
*/
n=8;
s=1;
t=8;
//type duree : [[AB,AC,AD,AE,..,AH][BA,BC,...]]
/*duree=[[1000,2,1000,5,7,1000,1000,1000],
	   [1000,1000,9,1000,4,1000,1000,1000],
	   [1000,1000,1000,1000,4,1000,6,1000],
	   [1000,1000,1000,1000,3,4,1000,1000],
	   [1000,1000,1000,1000,1000,3,4,1000],
	   [1000,1000,1000,1000,1000,1000,1000,5],
	   [1000,1000,1000,1000,1000,1000,1000,3],
	   [0,0,0,0,0,0,0,0]];*/
Arretes={<1,2>,<1,4>,<1,5>,<2,3>,<2,5>,<3,5>,<3,7>,<4,5>,<4,6>,<5,6>,<5,7>,<6,8>,<7,8>};
duree=[2 5 7 9 4 4 6 3 4 3 4 5 3];

//Subtours={ };

/*
Subtours={
	<2,[1,2]>,<5[1,4]>,<7,[1,5]>,
	<9,[2,3]>,<4,[2,5]>,
	<4,[3,5]>,<6,[3,7]>,
	<3,[4,5]>,<4,[4,6]>,
	<3,[5,6]>,<4,[5,7]>,
	<5,[6,8]>,<3,[7,8]>
};
*/